CMD:
./solvers/bin/cadical --plain --no-reduce -t 1600 ./data/cnfs//qspiflash_dualflexpress_divthree-p069/qspiflash_dualflexpress_divthree-p069.73.cnf

c --- [ banner ] -------------------------------------------------------------
c 
c CaDiCaL SAT Solver
c Copyright (c) 2016-2024
c A. Biere, M. Fleury, N. Froleyks, K. Fazekas, F. Pollitt, T. Faller
c JKU Linz, University of Freiburg, TU Wien
c 
c Version 2.1.3 5296d3d2a9bf48c154ab2acb5e44625776d821bf
c g++ (Gentoo 12.3.1_p20230526 p2) 12.3.1 20230526 -Wall -Wextra -O3 -DNDEBUG
c Sat Aug 9 07:26:21 PDT 2025 Linux cedar2.int.cedar.computecanada.ca 5.14.0-362.24.2.el9_3.x86_64 x86_64
c 
c --- [ limit ] --------------------------------------------------------------
c 
c setting time limit to 1600 seconds real time (due to '-t 1600')
c 
c --- [ parsing input ] ------------------------------------------------------
c 
c reading DIMACS file from './data/cnfs//qspiflash_dualflexpress_divthree-p069/qspiflash_dualflexpress_divthree-p069.73.cnf'
c opening file to read './data/cnfs//qspiflash_dualflexpress_divthree-p069/qspiflash_dualflexpress_divthree-p069.73.cnf'
c found 'p cnf 218116 636812' header
c parsed 636812 clauses in 0.10 seconds process time
c 
c --- [ options ] ------------------------------------------------------------
c 
c   --compact=false                (different from default 'true')
c   --decompose=false              (different from default 'true')
c   --deduplicate=false            (different from default 'true')
c   --elim=false                   (different from default 'true')
c   --probe=false                  (different from default 'true')
c   --reduce=false                 (different from default 'true')
c   --subsume=false                (different from default 'true')
c   --ternary=false                (different from default 'true')
c   --transred=false               (different from default 'true')
c   --vivify=false                 (different from default 'true')
c 
c --- [ solving ] ------------------------------------------------------------
c 
c time measured in process time since initialization
c 
c  seconds   reductions  redundant  irredundant
c          MB    restarts       trail       variables
c           level   conflicts       glue          remaining
c 
c *  0.10 101  0 0   0    0    0  0% 0 615158 203094 93%
c {  0.15 104  0 0   0    0    0  0% 0 615158 203094 93%
c i  0.20 105 125 0   0   18   13 26% 3 615158 203071 93%
c i  0.20 105 115 0   0   20   14 25% 2 615158 203062 93%
c i  0.33 105 78 0  38  787  708 18% 2 615158 202859 93%
c i  0.33 105 79 0  38  791  711 18% 2 615158 202850 93%
c i  0.34 105 79 0  38  794  712 18% 2 615158 202734 93%
c i  0.34 105 79 0  38  796  713 18% 2 615158 202692 93%
c i  0.34 105 80 0  38  806  721 19% 2 615158 202573 93%
c i  0.34 105 80 0  38  808  722 19% 2 615158 202437 93%
c i  0.34 105 80 0  38  815  728 19% 2 615158 202380 93%
c i  0.34 106 80 0  43  864  771 19% 2 615158 202253 93%
c i  0.36 106 76 0  58  925  826 18% 2 615158 202250 93%
c i  0.36 106 72 0  70  988  880 18% 3 615158 202245 93%
c }  0.36 106 71 0  71 1005  895 18% 3 615158 202245 93%
c [  0.36 106  0 0  71 1005  895  0% 0 615158 202245 93%
c O  0.40 106 1372 0  71 1006  896 80% 2 615158 202245 93%
c i  0.65 106 1136 0  72 2081 1896 66% 5 615158 202242 93%
c i  0.74 106 831 0  72 2483 2263 51% 6 615158 202238 93%
c i  0.79 106 734 0  72 2684 2450 47% 6 615158 202234 93%
c 
c  seconds    reductions  redundant  irredundant
c          MB     restarts       trail       variables
c            level   conflicts       glue          remaining
c 
c ]  0.83 106 641 0  72 3007 2752 43% 6 615158 202234 93%
c {  0.83 106 71 0  72 3007 2752 18% 3 615158 202234 93%
c F  0.84 106 71 0  73 3008 2752 18% 3 615158 202234 93%
c i  0.84 106 71 0  73 3008 2752 18% 3 615158 202230 93%
c i  0.86 106 67 0  94 3105 2836 17% 3 615158 202227 93%
c i  0.86 106 65 0 108 3170 2894 17% 3 615158 202223 93%
c i  0.87 106 63 0 109 3224 2942 17% 3 615158 202218 93%
c i  0.89 106 60 0 130 3315 3025 16% 3 615158 202214 93%
c i  0.97 107 56 0 186 3569 3249 16% 3 615158 202202 93%
c i  0.97 107 56 0 186 3573 3252 16% 3 615158 202192 93%
c i  0.97 107 55 0 186 3596 3268 16% 3 615158 202183 93%
c i  0.97 107 55 0 186 3597 3268 16% 3 615158 202173 93%
c i  0.98 107 55 0 197 3682 3345 16% 3 615158 202170 93%
c i  0.99 107 52 0 197 3813 3461 15% 3 615158 202159 93%
c i  0.99 107 51 0 197 3837 3483 15% 3 615158 202141 93%
c i  1.07 107 48 0 258 4324 3919 15% 3 615158 202137 93%
c i  1.11 107 44 0 333 4650 4224 15% 3 615158 202133 93%
c i  1.11 107 44 0 335 4667 4237 15% 3 615158 202129 93%
c i  1.12 107 43 0 345 4706 4271 14% 3 615158 202125 93%
c i  1.12 107 43 0 345 4711 4274 14% 3 615158 202121 93%
c 
c  seconds   reductions  redundant  irredundant
c          MB    restarts       trail       variables
c           level   conflicts       glue          remaining
c 
c i  1.18 107 41 0 424 5049 4571 14% 4 615158 202120 93%
c i  1.22 107 39 0 489 5342 4812 14% 4 615158 202080 93%
c i  1.23 107 39 0 489 5399 4862 14% 4 615158 202076 93%
c i  1.30 107 35 0 559 5936 5293 13% 4 615158 201925 93%
c i  1.30 107 35 0 559 5937 5293 13% 4 615158 201780 93%
c i  1.31 107 36 0 561 5975 5330 13% 4 615158 201776 93%
c #  1.32 107 36 0 569 6009 5362 13% 4 615158 201776 93%
c i  1.33 107 36 0 570 6016 5368 13% 4 615158 201772 93%
c i  1.45 107 36 0 633 6773 6038 14% 4 615158 201769 93%
c i  1.46 107 36 0 640 6804 6063 14% 4 615158 201764 93%
c i  1.48 107 36 0 645 6892 6127 14% 4 615158 201618 92%
c i  1.49 107 36 0 651 6988 6206 14% 4 615158 201472 92%
c }  1.49 107 36 0 651 7007 6225 14% 4 615158 201472 92%
c [  1.49 107 641 0 651 7007 6225 43% 6 615158 201472 92%
c i  1.50 107 636 0 651 7021 6238 43% 6 615158 201469 92%
c i  1.50 107 635 0 651 7024 6240 43% 6 615158 201464 92%
c i  1.52 107 559 0 652 7307 6467 39% 6 615158 201460 92%
c I  2.12 108 273 0 653 10013 8799 27% 7 615158 201460 92%
c i  2.15 108 268 0 653 10125 8899 27% 7 615158 201259 92%
c i  2.22 108 253 0 654 10458 9173 26% 7 615158 201242 92%
c 
c  seconds    reductions   redundant  irredundant
c          MB     restarts        trail       variables
c            level    conflicts       glue          remaining
c 
c i  2.24 108 246 0 654 10615 9293 26% 7 615158 200472 92%
c i  2.25 108 245 0 654 10640 9302 26% 7 615158 198250 91%
c i  2.25 108 245 0 654 10641 9302 26% 7 615158 198055 91%
c i  2.25 108 245 0 654 10642 9302 26% 7 615158 197813 91%
c i  2.25 108 245 0 654 10646 9305 25% 7 615158 197780 91%
c i  2.25 108 245 0 654 10647 9305 25% 7 615158 197669 91%
c ]  2.25 108 245 0 654 10649 9305 25% 7 615158 192364 88%
c 0  2.25 108 245 0 654 10649 9305 25% 7 615158 192364 88%
c 
c --- [ result ] -------------------------------------------------------------
c 
s UNSATISFIABLE
c 
c --- [ run-time profiling ] -------------------------------------------------
c 
c process time taken by individual solving procedures
c (percentage relative to process time for solving)
c 
c         2.15   99.99% search
c         1.23   57.28% stable
c         0.87   40.37% unstable
c         0.10    4.71% parse
c         0.05    2.34% lucky
c         0.00    0.00% simplify
c   =================================
c         2.15   95.48% solve
c 
c last line shows process time for solving
c (percentage relative to total process time)
c 
c --- [ statistics ] ---------------------------------------------------------
c 
c chronological:              4626        43.44 %  of conflicts
c conflicts:                 10649      4961.22    per second
c decisions:                 36447     16980.16    per second
c fixed:                     25718        11.79 %  of all variables
c learned:                   10130        95.13 %  per conflict
c learned_lits:             214832       100.00 %  learned literals
c minimized:                     0         0.00 %  learned literals
c shrunken:                  40981        19.08 %  learned literals
c minishrunken:              34989        16.29 %  learned literals
c otfs:                        114         1.07 %  of conflict
c propagations:           29969162        13.96 M  per second
c rephased:                      4      2662.25    interval
c restarts:                    654        16.28    interval
c stabilizing:                   2        53.00 %  of conflicts
c subsumed:                    771         0.12 %  of all clauses
c strengthened:                113         0.02 %  of all clauses
c 
c seconds are measured in process time for solving
c 
c --- [ resources ] ----------------------------------------------------------
c 
c total process time since initialization:         2.25    seconds
c total real time since initialization:            2.26    seconds
c maximum resident set size of process:          106.15    MB
c 
c --- [ shutting down ] ------------------------------------------------------
c 
c exit 20
